23, 500
0, 24, 23
1, 33, 17
2, 23, 12
3, 17, 10
4, 31, 18
5, 20, 14
6, 38, 10
7, 15, 20
8, 29, 1
9, 21, 8
10, 18, 3
11, 36, 13
12, 37, 9
13, 32, 18
14, 26, 9
15, 16, 20
16, 30, 6
17, 27, 12
18, 39, 14
19, 35, 24
20, 19, 25
21, 34, 6
22, 25, 17